p cnf 605 2055
c p weight 242 -1 0
c p weight -242 1 0
c p weight 244 6.12323399573676603586882014729198302312846062338790031898128063403419218957424163818359375E-17 0
c p weight -244 1 0
c p weight 245 1 0
c p weight -245 1 0
c p weight 246 -1 0
c p weight -246 1 0
c p weight 248 -1 0
c p weight -248 1 0
c p weight 251 -1 0
c p weight -251 1 0
c p weight 254 -1 0
c p weight -254 1 0
c p weight 257 -1 0
c p weight -257 1 0
c p weight 260 -1 0
c p weight -260 1 0
c p weight 263 -1 0
c p weight -263 1 0
c p weight 266 -1 0
c p weight -266 1 0
c p weight 269 -1 0
c p weight -269 1 0
c p weight 272 -1 0
c p weight -272 1 0
c p weight 275 -1 0
c p weight -275 1 0
c p weight 278 -1 0
c p weight -278 1 0
c p weight 281 -1 0
c p weight -281 1 0
c p weight 284 -1 0
c p weight -284 1 0
c p weight 287 -1 0
c p weight -287 1 0
c p weight 290 -1 0
c p weight -290 1 0
c p weight 293 -1 0
c p weight -293 1 0
c p weight 296 -1 0
c p weight -296 1 0
c p weight 299 -1 0
c p weight -299 1 0
c p weight 302 -1 0
c p weight -302 1 0
c p weight 305 -1 0
c p weight -305 1 0
c p weight 308 -1 0
c p weight -308 1 0
c p weight 311 -1 0
c p weight -311 1 0
c p weight 314 -1 0
c p weight -314 1 0
c p weight 317 -1 0
c p weight -317 1 0
c p weight 320 -1 0
c p weight -320 1 0
c p weight 323 -1 0
c p weight -323 1 0
c p weight 326 -1 0
c p weight -326 1 0
c p weight 329 -1 0
c p weight -329 1 0
c p weight 332 -1 0
c p weight -332 1 0
c p weight 335 -1 0
c p weight -335 1 0
c p weight 338 -1 0
c p weight -338 1 0
c p weight 341 -1 0
c p weight -341 1 0
c p weight 344 -1 0
c p weight -344 1 0
c p weight 347 -1 0
c p weight -347 1 0
c p weight 350 -1 0
c p weight -350 1 0
c p weight 353 -1 0
c p weight -353 1 0
c p weight 356 -1 0
c p weight -356 1 0
c p weight 359 -1 0
c p weight -359 1 0
c p weight 362 -1 0
c p weight -362 1 0
c p weight 365 -1 0
c p weight -365 1 0
c p weight 368 -1 0
c p weight -368 1 0
c p weight 371 -1 0
c p weight -371 1 0
c p weight 374 -1 0
c p weight -374 1 0
c p weight 377 -1 0
c p weight -377 1 0
c p weight 380 -1 0
c p weight -380 1 0
c p weight 383 -1 0
c p weight -383 1 0
c p weight 386 -1 0
c p weight -386 1 0
c p weight 389 -1 0
c p weight -389 1 0
c p weight 392 -1 0
c p weight -392 1 0
c p weight 395 -1 0
c p weight -395 1 0
c p weight 398 -1 0
c p weight -398 1 0
c p weight 401 -1 0
c p weight -401 1 0
c p weight 404 -1 0
c p weight -404 1 0
c p weight 407 -1 0
c p weight -407 1 0
c p weight 410 -1 0
c p weight -410 1 0
c p weight 413 -1 0
c p weight -413 1 0
c p weight 416 -1 0
c p weight -416 1 0
c p weight 419 -1 0
c p weight -419 1 0
c p weight 422 -1 0
c p weight -422 1 0
c p weight 425 -1 0
c p weight -425 1 0
c p weight 428 -1 0
c p weight -428 1 0
c p weight 431 -1 0
c p weight -431 1 0
c p weight 434 -1 0
c p weight -434 1 0
c p weight 437 -1 0
c p weight -437 1 0
c p weight 440 -1 0
c p weight -440 1 0
c p weight 443 -1 0
c p weight -443 1 0
c p weight 446 -1 0
c p weight -446 1 0
c p weight 449 -1 0
c p weight -449 1 0
c p weight 452 -1 0
c p weight -452 1 0
c p weight 455 -1 0
c p weight -455 1 0
c p weight 458 -1 0
c p weight -458 1 0
c p weight 461 -1 0
c p weight -461 1 0
c p weight 464 -1 0
c p weight -464 1 0
c p weight 467 -1 0
c p weight -467 1 0
c p weight 470 -1 0
c p weight -470 1 0
c p weight 473 -1 0
c p weight -473 1 0
c p weight 476 -1 0
c p weight -476 1 0
c p weight 479 -1 0
c p weight -479 1 0
c p weight 482 -1 0
c p weight -482 1 0
c p weight 485 -1 0
c p weight -485 1 0
c p weight 488 -1 0
c p weight -488 1 0
c p weight 491 -1 0
c p weight -491 1 0
c p weight 494 -1 0
c p weight -494 1 0
c p weight 497 -1 0
c p weight -497 1 0
c p weight 500 -1 0
c p weight -500 1 0
c p weight 503 -1 0
c p weight -503 1 0
c p weight 506 -1 0
c p weight -506 1 0
c p weight 509 -1 0
c p weight -509 1 0
c p weight 512 -1 0
c p weight -512 1 0
c p weight 515 -1 0
c p weight -515 1 0
c p weight 518 -1 0
c p weight -518 1 0
c p weight 521 -1 0
c p weight -521 1 0
c p weight 524 -1 0
c p weight -524 1 0
c p weight 527 -1 0
c p weight -527 1 0
c p weight 530 -1 0
c p weight -530 1 0
c p weight 533 -1 0
c p weight -533 1 0
c p weight 536 -1 0
c p weight -536 1 0
c p weight 539 -1 0
c p weight -539 1 0
c p weight 542 -1 0
c p weight -542 1 0
c p weight 545 -1 0
c p weight -545 1 0
c p weight 548 -1 0
c p weight -548 1 0
c p weight 551 -1 0
c p weight -551 1 0
c p weight 554 -1 0
c p weight -554 1 0
c p weight 557 -1 0
c p weight -557 1 0
c p weight 560 -1 0
c p weight -560 1 0
c p weight 563 -1 0
c p weight -563 1 0
c p weight 566 -1 0
c p weight -566 1 0
c p weight 569 -1 0
c p weight -569 1 0
c p weight 572 -1 0
c p weight -572 1 0
c p weight 575 -1 0
c p weight -575 1 0
c p weight 578 -1 0
c p weight -578 1 0
c p weight 581 -1 0
c p weight -581 1 0
c p weight 584 -1 0
c p weight -584 1 0
c p weight 587 -1 0
c p weight -587 1 0
c p weight 590 -1 0
c p weight -590 1 0
c p weight 593 -1 0
c p weight -593 1 0
c p weight 596 -1 0
c p weight -596 1 0
c p weight 599 -1 0
c p weight -599 1 0
c p weight 602 -1 0
c p weight -602 1 0
c p weight 605 -1 0
c p weight -605 1 0
-239 0
-237 0
-235 0
-233 0
-231 0
-229 0
-227 0
-225 0
-223 0
-221 0
-219 0
-217 0
-215 0
-213 0
-211 0
-209 0
-207 0
-205 0
-203 0
-201 0
-199 0
-197 0
-195 0
-193 0
-191 0
-189 0
-187 0
-185 0
-183 0
-181 0
-179 0
-177 0
-175 0
-173 0
-171 0
-169 0
-167 0
-165 0
-163 0
-161 0
-159 0
-157 0
-155 0
-153 0
-151 0
-149 0
-147 0
-145 0
-143 0
-141 0
-139 0
-137 0
-135 0
-133 0
-131 0
-129 0
-127 0
-125 0
-123 0
-121 0
-119 0
-117 0
-115 0
-113 0
-111 0
-109 0
-107 0
-105 0
-103 0
-101 0
-99 0
-97 0
-95 0
-93 0
-91 0
-89 0
-87 0
-85 0
-83 0
-81 0
-79 0
-77 0
-75 0
-73 0
-71 0
-69 0
-67 0
-65 0
-63 0
-61 0
-59 0
-57 0
-55 0
-53 0
-51 0
-49 0
-47 0
-45 0
-43 0
-41 0
-39 0
-37 0
-35 0
-33 0
-31 0
-29 0
-27 0
-25 0
-23 0
-21 0
-19 0
-17 0
-15 0
-13 0
-11 0
-9 0
-7 0
-5 0
-3 0
-1 0
241 239 -240 0
241 -239 240 0
-241 239 240 0
-241 -239 -240 0
-242 239 0
-242 240 0
242 -239 -240 0
243 -239 241 0
-243 239 241 0
-244 241 0
243 -244 -239 0
-243 -244 239 0
243 244 239 -241 0
-243 244 -239 -241 0
-245 241 0
243 -245 239 0
-243 -245 -239 0
243 245 -239 -241 0
-243 245 239 -241 0
-246 243 0
-246 241 0
-246 -239 0
246 -243 239 -241 0
247 243 -241 0
247 -243 241 0
-247 243 241 0
-247 -243 -241 0
-248 243 0
-248 241 0
248 -243 -241 0
249 243 -237 0
249 -243 237 0
-249 243 237 0
-249 -243 -237 0
250 247 -238 0
250 -247 238 0
-250 247 238 0
-250 -247 -238 0
-251 243 0
-251 238 0
-251 237 -247 0
-251 -237 247 0
251 -243 237 247 -238 0
251 -243 -237 -247 -238 0
252 249 -235 0
252 -249 235 0
-252 249 235 0
-252 -249 -235 0
253 238 -236 0
253 -238 236 0
-253 238 236 0
-253 -238 -236 0
-254 249 0
-254 236 0
-254 235 -238 0
-254 -235 238 0
254 -249 235 238 -236 0
254 -249 -235 -238 -236 0
255 252 -233 0
255 -252 233 0
-255 252 233 0
-255 -252 -233 0
256 236 -234 0
256 -236 234 0
-256 236 234 0
-256 -236 -234 0
-257 252 0
-257 234 0
-257 233 -236 0
-257 -233 236 0
257 -252 233 236 -234 0
257 -252 -233 -236 -234 0
258 255 -231 0
258 -255 231 0
-258 255 231 0
-258 -255 -231 0
259 234 -232 0
259 -234 232 0
-259 234 232 0
-259 -234 -232 0
-260 255 0
-260 232 0
-260 231 -234 0
-260 -231 234 0
260 -255 231 234 -232 0
260 -255 -231 -234 -232 0
261 258 -229 0
261 -258 229 0
-261 258 229 0
-261 -258 -229 0
262 232 -230 0
262 -232 230 0
-262 232 230 0
-262 -232 -230 0
-263 258 0
-263 230 0
-263 229 -232 0
-263 -229 232 0
263 -258 229 232 -230 0
263 -258 -229 -232 -230 0
264 261 -227 0
264 -261 227 0
-264 261 227 0
-264 -261 -227 0
265 230 -228 0
265 -230 228 0
-265 230 228 0
-265 -230 -228 0
-266 261 0
-266 228 0
-266 227 -230 0
-266 -227 230 0
266 -261 227 230 -228 0
266 -261 -227 -230 -228 0
267 264 -225 0
267 -264 225 0
-267 264 225 0
-267 -264 -225 0
268 228 -226 0
268 -228 226 0
-268 228 226 0
-268 -228 -226 0
-269 264 0
-269 226 0
-269 225 -228 0
-269 -225 228 0
269 -264 225 228 -226 0
269 -264 -225 -228 -226 0
270 267 -223 0
270 -267 223 0
-270 267 223 0
-270 -267 -223 0
271 226 -224 0
271 -226 224 0
-271 226 224 0
-271 -226 -224 0
-272 267 0
-272 224 0
-272 223 -226 0
-272 -223 226 0
272 -267 223 226 -224 0
272 -267 -223 -226 -224 0
273 270 -221 0
273 -270 221 0
-273 270 221 0
-273 -270 -221 0
274 224 -222 0
274 -224 222 0
-274 224 222 0
-274 -224 -222 0
-275 270 0
-275 222 0
-275 221 -224 0
-275 -221 224 0
275 -270 221 224 -222 0
275 -270 -221 -224 -222 0
276 273 -219 0
276 -273 219 0
-276 273 219 0
-276 -273 -219 0
277 222 -220 0
277 -222 220 0
-277 222 220 0
-277 -222 -220 0
-278 273 0
-278 220 0
-278 219 -222 0
-278 -219 222 0
278 -273 219 222 -220 0
278 -273 -219 -222 -220 0
279 276 -217 0
279 -276 217 0
-279 276 217 0
-279 -276 -217 0
280 220 -218 0
280 -220 218 0
-280 220 218 0
-280 -220 -218 0
-281 276 0
-281 218 0
-281 217 -220 0
-281 -217 220 0
281 -276 217 220 -218 0
281 -276 -217 -220 -218 0
282 279 -215 0
282 -279 215 0
-282 279 215 0
-282 -279 -215 0
283 218 -216 0
283 -218 216 0
-283 218 216 0
-283 -218 -216 0
-284 279 0
-284 216 0
-284 215 -218 0
-284 -215 218 0
284 -279 215 218 -216 0
284 -279 -215 -218 -216 0
285 282 -213 0
285 -282 213 0
-285 282 213 0
-285 -282 -213 0
286 216 -214 0
286 -216 214 0
-286 216 214 0
-286 -216 -214 0
-287 282 0
-287 214 0
-287 213 -216 0
-287 -213 216 0
287 -282 213 216 -214 0
287 -282 -213 -216 -214 0
288 285 -211 0
288 -285 211 0
-288 285 211 0
-288 -285 -211 0
289 214 -212 0
289 -214 212 0
-289 214 212 0
-289 -214 -212 0
-290 285 0
-290 212 0
-290 211 -214 0
-290 -211 214 0
290 -285 211 214 -212 0
290 -285 -211 -214 -212 0
291 288 -209 0
291 -288 209 0
-291 288 209 0
-291 -288 -209 0
292 212 -210 0
292 -212 210 0
-292 212 210 0
-292 -212 -210 0
-293 288 0
-293 210 0
-293 209 -212 0
-293 -209 212 0
293 -288 209 212 -210 0
293 -288 -209 -212 -210 0
294 291 -207 0
294 -291 207 0
-294 291 207 0
-294 -291 -207 0
295 210 -208 0
295 -210 208 0
-295 210 208 0
-295 -210 -208 0
-296 291 0
-296 208 0
-296 207 -210 0
-296 -207 210 0
296 -291 207 210 -208 0
296 -291 -207 -210 -208 0
297 294 -205 0
297 -294 205 0
-297 294 205 0
-297 -294 -205 0
298 208 -206 0
298 -208 206 0
-298 208 206 0
-298 -208 -206 0
-299 294 0
-299 206 0
-299 205 -208 0
-299 -205 208 0
299 -294 205 208 -206 0
299 -294 -205 -208 -206 0
300 297 -203 0
300 -297 203 0
-300 297 203 0
-300 -297 -203 0
301 206 -204 0
301 -206 204 0
-301 206 204 0
-301 -206 -204 0
-302 297 0
-302 204 0
-302 203 -206 0
-302 -203 206 0
302 -297 203 206 -204 0
302 -297 -203 -206 -204 0
303 300 -201 0
303 -300 201 0
-303 300 201 0
-303 -300 -201 0
304 204 -202 0
304 -204 202 0
-304 204 202 0
-304 -204 -202 0
-305 300 0
-305 202 0
-305 201 -204 0
-305 -201 204 0
305 -300 201 204 -202 0
305 -300 -201 -204 -202 0
306 303 -199 0
306 -303 199 0
-306 303 199 0
-306 -303 -199 0
307 202 -200 0
307 -202 200 0
-307 202 200 0
-307 -202 -200 0
-308 303 0
-308 200 0
-308 199 -202 0
-308 -199 202 0
308 -303 199 202 -200 0
308 -303 -199 -202 -200 0
309 306 -197 0
309 -306 197 0
-309 306 197 0
-309 -306 -197 0
310 200 -198 0
310 -200 198 0
-310 200 198 0
-310 -200 -198 0
-311 306 0
-311 198 0
-311 197 -200 0
-311 -197 200 0
311 -306 197 200 -198 0
311 -306 -197 -200 -198 0
312 309 -195 0
312 -309 195 0
-312 309 195 0
-312 -309 -195 0
313 198 -196 0
313 -198 196 0
-313 198 196 0
-313 -198 -196 0
-314 309 0
-314 196 0
-314 195 -198 0
-314 -195 198 0
314 -309 195 198 -196 0
314 -309 -195 -198 -196 0
315 312 -193 0
315 -312 193 0
-315 312 193 0
-315 -312 -193 0
316 196 -194 0
316 -196 194 0
-316 196 194 0
-316 -196 -194 0
-317 312 0
-317 194 0
-317 193 -196 0
-317 -193 196 0
317 -312 193 196 -194 0
317 -312 -193 -196 -194 0
318 315 -191 0
318 -315 191 0
-318 315 191 0
-318 -315 -191 0
319 194 -192 0
319 -194 192 0
-319 194 192 0
-319 -194 -192 0
-320 315 0
-320 192 0
-320 191 -194 0
-320 -191 194 0
320 -315 191 194 -192 0
320 -315 -191 -194 -192 0
321 318 -189 0
321 -318 189 0
-321 318 189 0
-321 -318 -189 0
322 192 -190 0
322 -192 190 0
-322 192 190 0
-322 -192 -190 0
-323 318 0
-323 190 0
-323 189 -192 0
-323 -189 192 0
323 -318 189 192 -190 0
323 -318 -189 -192 -190 0
324 321 -187 0
324 -321 187 0
-324 321 187 0
-324 -321 -187 0
325 190 -188 0
325 -190 188 0
-325 190 188 0
-325 -190 -188 0
-326 321 0
-326 188 0
-326 187 -190 0
-326 -187 190 0
326 -321 187 190 -188 0
326 -321 -187 -190 -188 0
327 324 -185 0
327 -324 185 0
-327 324 185 0
-327 -324 -185 0
328 188 -186 0
328 -188 186 0
-328 188 186 0
-328 -188 -186 0
-329 324 0
-329 186 0
-329 185 -188 0
-329 -185 188 0
329 -324 185 188 -186 0
329 -324 -185 -188 -186 0
330 327 -183 0
330 -327 183 0
-330 327 183 0
-330 -327 -183 0
331 186 -184 0
331 -186 184 0
-331 186 184 0
-331 -186 -184 0
-332 327 0
-332 184 0
-332 183 -186 0
-332 -183 186 0
332 -327 183 186 -184 0
332 -327 -183 -186 -184 0
333 330 -181 0
333 -330 181 0
-333 330 181 0
-333 -330 -181 0
334 184 -182 0
334 -184 182 0
-334 184 182 0
-334 -184 -182 0
-335 330 0
-335 182 0
-335 181 -184 0
-335 -181 184 0
335 -330 181 184 -182 0
335 -330 -181 -184 -182 0
336 333 -179 0
336 -333 179 0
-336 333 179 0
-336 -333 -179 0
337 182 -180 0
337 -182 180 0
-337 182 180 0
-337 -182 -180 0
-338 333 0
-338 180 0
-338 179 -182 0
-338 -179 182 0
338 -333 179 182 -180 0
338 -333 -179 -182 -180 0
339 336 -177 0
339 -336 177 0
-339 336 177 0
-339 -336 -177 0
340 180 -178 0
340 -180 178 0
-340 180 178 0
-340 -180 -178 0
-341 336 0
-341 178 0
-341 177 -180 0
-341 -177 180 0
341 -336 177 180 -178 0
341 -336 -177 -180 -178 0
342 339 -175 0
342 -339 175 0
-342 339 175 0
-342 -339 -175 0
343 178 -176 0
343 -178 176 0
-343 178 176 0
-343 -178 -176 0
-344 339 0
-344 176 0
-344 175 -178 0
-344 -175 178 0
344 -339 175 178 -176 0
344 -339 -175 -178 -176 0
345 342 -173 0
345 -342 173 0
-345 342 173 0
-345 -342 -173 0
346 176 -174 0
346 -176 174 0
-346 176 174 0
-346 -176 -174 0
-347 342 0
-347 174 0
-347 173 -176 0
-347 -173 176 0
347 -342 173 176 -174 0
347 -342 -173 -176 -174 0
348 345 -171 0
348 -345 171 0
-348 345 171 0
-348 -345 -171 0
349 174 -172 0
349 -174 172 0
-349 174 172 0
-349 -174 -172 0
-350 345 0
-350 172 0
-350 171 -174 0
-350 -171 174 0
350 -345 171 174 -172 0
350 -345 -171 -174 -172 0
351 348 -169 0
351 -348 169 0
-351 348 169 0
-351 -348 -169 0
352 172 -170 0
352 -172 170 0
-352 172 170 0
-352 -172 -170 0
-353 348 0
-353 170 0
-353 169 -172 0
-353 -169 172 0
353 -348 169 172 -170 0
353 -348 -169 -172 -170 0
354 351 -167 0
354 -351 167 0
-354 351 167 0
-354 -351 -167 0
355 170 -168 0
355 -170 168 0
-355 170 168 0
-355 -170 -168 0
-356 351 0
-356 168 0
-356 167 -170 0
-356 -167 170 0
356 -351 167 170 -168 0
356 -351 -167 -170 -168 0
357 354 -165 0
357 -354 165 0
-357 354 165 0
-357 -354 -165 0
358 168 -166 0
358 -168 166 0
-358 168 166 0
-358 -168 -166 0
-359 354 0
-359 166 0
-359 165 -168 0
-359 -165 168 0
359 -354 165 168 -166 0
359 -354 -165 -168 -166 0
360 357 -163 0
360 -357 163 0
-360 357 163 0
-360 -357 -163 0
361 166 -164 0
361 -166 164 0
-361 166 164 0
-361 -166 -164 0
-362 357 0
-362 164 0
-362 163 -166 0
-362 -163 166 0
362 -357 163 166 -164 0
362 -357 -163 -166 -164 0
363 360 -161 0
363 -360 161 0
-363 360 161 0
-363 -360 -161 0
364 164 -162 0
364 -164 162 0
-364 164 162 0
-364 -164 -162 0
-365 360 0
-365 162 0
-365 161 -164 0
-365 -161 164 0
365 -360 161 164 -162 0
365 -360 -161 -164 -162 0
366 363 -159 0
366 -363 159 0
-366 363 159 0
-366 -363 -159 0
367 162 -160 0
367 -162 160 0
-367 162 160 0
-367 -162 -160 0
-368 363 0
-368 160 0
-368 159 -162 0
-368 -159 162 0
368 -363 159 162 -160 0
368 -363 -159 -162 -160 0
369 366 -157 0
369 -366 157 0
-369 366 157 0
-369 -366 -157 0
370 160 -158 0
370 -160 158 0
-370 160 158 0
-370 -160 -158 0
-371 366 0
-371 158 0
-371 157 -160 0
-371 -157 160 0
371 -366 157 160 -158 0
371 -366 -157 -160 -158 0
372 369 -155 0
372 -369 155 0
-372 369 155 0
-372 -369 -155 0
373 158 -156 0
373 -158 156 0
-373 158 156 0
-373 -158 -156 0
-374 369 0
-374 156 0
-374 155 -158 0
-374 -155 158 0
374 -369 155 158 -156 0
374 -369 -155 -158 -156 0
375 372 -153 0
375 -372 153 0
-375 372 153 0
-375 -372 -153 0
376 156 -154 0
376 -156 154 0
-376 156 154 0
-376 -156 -154 0
-377 372 0
-377 154 0
-377 153 -156 0
-377 -153 156 0
377 -372 153 156 -154 0
377 -372 -153 -156 -154 0
378 375 -151 0
378 -375 151 0
-378 375 151 0
-378 -375 -151 0
379 154 -152 0
379 -154 152 0
-379 154 152 0
-379 -154 -152 0
-380 375 0
-380 152 0
-380 151 -154 0
-380 -151 154 0
380 -375 151 154 -152 0
380 -375 -151 -154 -152 0
381 378 -149 0
381 -378 149 0
-381 378 149 0
-381 -378 -149 0
382 152 -150 0
382 -152 150 0
-382 152 150 0
-382 -152 -150 0
-383 378 0
-383 150 0
-383 149 -152 0
-383 -149 152 0
383 -378 149 152 -150 0
383 -378 -149 -152 -150 0
384 381 -147 0
384 -381 147 0
-384 381 147 0
-384 -381 -147 0
385 150 -148 0
385 -150 148 0
-385 150 148 0
-385 -150 -148 0
-386 381 0
-386 148 0
-386 147 -150 0
-386 -147 150 0
386 -381 147 150 -148 0
386 -381 -147 -150 -148 0
387 384 -145 0
387 -384 145 0
-387 384 145 0
-387 -384 -145 0
388 148 -146 0
388 -148 146 0
-388 148 146 0
-388 -148 -146 0
-389 384 0
-389 146 0
-389 145 -148 0
-389 -145 148 0
389 -384 145 148 -146 0
389 -384 -145 -148 -146 0
390 387 -143 0
390 -387 143 0
-390 387 143 0
-390 -387 -143 0
391 146 -144 0
391 -146 144 0
-391 146 144 0
-391 -146 -144 0
-392 387 0
-392 144 0
-392 143 -146 0
-392 -143 146 0
392 -387 143 146 -144 0
392 -387 -143 -146 -144 0
393 390 -141 0
393 -390 141 0
-393 390 141 0
-393 -390 -141 0
394 144 -142 0
394 -144 142 0
-394 144 142 0
-394 -144 -142 0
-395 390 0
-395 142 0
-395 141 -144 0
-395 -141 144 0
395 -390 141 144 -142 0
395 -390 -141 -144 -142 0
396 393 -139 0
396 -393 139 0
-396 393 139 0
-396 -393 -139 0
397 142 -140 0
397 -142 140 0
-397 142 140 0
-397 -142 -140 0
-398 393 0
-398 140 0
-398 139 -142 0
-398 -139 142 0
398 -393 139 142 -140 0
398 -393 -139 -142 -140 0
399 396 -137 0
399 -396 137 0
-399 396 137 0
-399 -396 -137 0
400 140 -138 0
400 -140 138 0
-400 140 138 0
-400 -140 -138 0
-401 396 0
-401 138 0
-401 137 -140 0
-401 -137 140 0
401 -396 137 140 -138 0
401 -396 -137 -140 -138 0
402 399 -135 0
402 -399 135 0
-402 399 135 0
-402 -399 -135 0
403 138 -136 0
403 -138 136 0
-403 138 136 0
-403 -138 -136 0
-404 399 0
-404 136 0
-404 135 -138 0
-404 -135 138 0
404 -399 135 138 -136 0
404 -399 -135 -138 -136 0
405 402 -133 0
405 -402 133 0
-405 402 133 0
-405 -402 -133 0
406 136 -134 0
406 -136 134 0
-406 136 134 0
-406 -136 -134 0
-407 402 0
-407 134 0
-407 133 -136 0
-407 -133 136 0
407 -402 133 136 -134 0
407 -402 -133 -136 -134 0
408 405 -131 0
408 -405 131 0
-408 405 131 0
-408 -405 -131 0
409 134 -132 0
409 -134 132 0
-409 134 132 0
-409 -134 -132 0
-410 405 0
-410 132 0
-410 131 -134 0
-410 -131 134 0
410 -405 131 134 -132 0
410 -405 -131 -134 -132 0
411 408 -129 0
411 -408 129 0
-411 408 129 0
-411 -408 -129 0
412 132 -130 0
412 -132 130 0
-412 132 130 0
-412 -132 -130 0
-413 408 0
-413 130 0
-413 129 -132 0
-413 -129 132 0
413 -408 129 132 -130 0
413 -408 -129 -132 -130 0
414 411 -127 0
414 -411 127 0
-414 411 127 0
-414 -411 -127 0
415 130 -128 0
415 -130 128 0
-415 130 128 0
-415 -130 -128 0
-416 411 0
-416 128 0
-416 127 -130 0
-416 -127 130 0
416 -411 127 130 -128 0
416 -411 -127 -130 -128 0
417 414 -125 0
417 -414 125 0
-417 414 125 0
-417 -414 -125 0
418 128 -126 0
418 -128 126 0
-418 128 126 0
-418 -128 -126 0
-419 414 0
-419 126 0
-419 125 -128 0
-419 -125 128 0
419 -414 125 128 -126 0
419 -414 -125 -128 -126 0
420 417 -123 0
420 -417 123 0
-420 417 123 0
-420 -417 -123 0
421 126 -124 0
421 -126 124 0
-421 126 124 0
-421 -126 -124 0
-422 417 0
-422 124 0
-422 123 -126 0
-422 -123 126 0
422 -417 123 126 -124 0
422 -417 -123 -126 -124 0
423 420 -121 0
423 -420 121 0
-423 420 121 0
-423 -420 -121 0
424 124 -122 0
424 -124 122 0
-424 124 122 0
-424 -124 -122 0
-425 420 0
-425 122 0
-425 121 -124 0
-425 -121 124 0
425 -420 121 124 -122 0
425 -420 -121 -124 -122 0
426 423 -119 0
426 -423 119 0
-426 423 119 0
-426 -423 -119 0
427 122 -120 0
427 -122 120 0
-427 122 120 0
-427 -122 -120 0
-428 423 0
-428 120 0
-428 119 -122 0
-428 -119 122 0
428 -423 119 122 -120 0
428 -423 -119 -122 -120 0
429 426 -117 0
429 -426 117 0
-429 426 117 0
-429 -426 -117 0
430 120 -118 0
430 -120 118 0
-430 120 118 0
-430 -120 -118 0
-431 426 0
-431 118 0
-431 117 -120 0
-431 -117 120 0
431 -426 117 120 -118 0
431 -426 -117 -120 -118 0
432 429 -115 0
432 -429 115 0
-432 429 115 0
-432 -429 -115 0
433 118 -116 0
433 -118 116 0
-433 118 116 0
-433 -118 -116 0
-434 429 0
-434 116 0
-434 115 -118 0
-434 -115 118 0
434 -429 115 118 -116 0
434 -429 -115 -118 -116 0
435 432 -113 0
435 -432 113 0
-435 432 113 0
-435 -432 -113 0
436 116 -114 0
436 -116 114 0
-436 116 114 0
-436 -116 -114 0
-437 432 0
-437 114 0
-437 113 -116 0
-437 -113 116 0
437 -432 113 116 -114 0
437 -432 -113 -116 -114 0
438 435 -111 0
438 -435 111 0
-438 435 111 0
-438 -435 -111 0
439 114 -112 0
439 -114 112 0
-439 114 112 0
-439 -114 -112 0
-440 435 0
-440 112 0
-440 111 -114 0
-440 -111 114 0
440 -435 111 114 -112 0
440 -435 -111 -114 -112 0
441 438 -109 0
441 -438 109 0
-441 438 109 0
-441 -438 -109 0
442 112 -110 0
442 -112 110 0
-442 112 110 0
-442 -112 -110 0
-443 438 0
-443 110 0
-443 109 -112 0
-443 -109 112 0
443 -438 109 112 -110 0
443 -438 -109 -112 -110 0
444 441 -107 0
444 -441 107 0
-444 441 107 0
-444 -441 -107 0
445 110 -108 0
445 -110 108 0
-445 110 108 0
-445 -110 -108 0
-446 441 0
-446 108 0
-446 107 -110 0
-446 -107 110 0
446 -441 107 110 -108 0
446 -441 -107 -110 -108 0
447 444 -105 0
447 -444 105 0
-447 444 105 0
-447 -444 -105 0
448 108 -106 0
448 -108 106 0
-448 108 106 0
-448 -108 -106 0
-449 444 0
-449 106 0
-449 105 -108 0
-449 -105 108 0
449 -444 105 108 -106 0
449 -444 -105 -108 -106 0
450 447 -103 0
450 -447 103 0
-450 447 103 0
-450 -447 -103 0
451 106 -104 0
451 -106 104 0
-451 106 104 0
-451 -106 -104 0
-452 447 0
-452 104 0
-452 103 -106 0
-452 -103 106 0
452 -447 103 106 -104 0
452 -447 -103 -106 -104 0
453 450 -101 0
453 -450 101 0
-453 450 101 0
-453 -450 -101 0
454 104 -102 0
454 -104 102 0
-454 104 102 0
-454 -104 -102 0
-455 450 0
-455 102 0
-455 101 -104 0
-455 -101 104 0
455 -450 101 104 -102 0
455 -450 -101 -104 -102 0
456 453 -99 0
456 -453 99 0
-456 453 99 0
-456 -453 -99 0
457 102 -100 0
457 -102 100 0
-457 102 100 0
-457 -102 -100 0
-458 453 0
-458 100 0
-458 99 -102 0
-458 -99 102 0
458 -453 99 102 -100 0
458 -453 -99 -102 -100 0
459 456 -97 0
459 -456 97 0
-459 456 97 0
-459 -456 -97 0
460 100 -98 0
460 -100 98 0
-460 100 98 0
-460 -100 -98 0
-461 456 0
-461 98 0
-461 97 -100 0
-461 -97 100 0
461 -456 97 100 -98 0
461 -456 -97 -100 -98 0
462 459 -95 0
462 -459 95 0
-462 459 95 0
-462 -459 -95 0
463 98 -96 0
463 -98 96 0
-463 98 96 0
-463 -98 -96 0
-464 459 0
-464 96 0
-464 95 -98 0
-464 -95 98 0
464 -459 95 98 -96 0
464 -459 -95 -98 -96 0
465 462 -93 0
465 -462 93 0
-465 462 93 0
-465 -462 -93 0
466 96 -94 0
466 -96 94 0
-466 96 94 0
-466 -96 -94 0
-467 462 0
-467 94 0
-467 93 -96 0
-467 -93 96 0
467 -462 93 96 -94 0
467 -462 -93 -96 -94 0
468 465 -91 0
468 -465 91 0
-468 465 91 0
-468 -465 -91 0
469 94 -92 0
469 -94 92 0
-469 94 92 0
-469 -94 -92 0
-470 465 0
-470 92 0
-470 91 -94 0
-470 -91 94 0
470 -465 91 94 -92 0
470 -465 -91 -94 -92 0
471 468 -89 0
471 -468 89 0
-471 468 89 0
-471 -468 -89 0
472 92 -90 0
472 -92 90 0
-472 92 90 0
-472 -92 -90 0
-473 468 0
-473 90 0
-473 89 -92 0
-473 -89 92 0
473 -468 89 92 -90 0
473 -468 -89 -92 -90 0
474 471 -87 0
474 -471 87 0
-474 471 87 0
-474 -471 -87 0
475 90 -88 0
475 -90 88 0
-475 90 88 0
-475 -90 -88 0
-476 471 0
-476 88 0
-476 87 -90 0
-476 -87 90 0
476 -471 87 90 -88 0
476 -471 -87 -90 -88 0
477 474 -85 0
477 -474 85 0
-477 474 85 0
-477 -474 -85 0
478 88 -86 0
478 -88 86 0
-478 88 86 0
-478 -88 -86 0
-479 474 0
-479 86 0
-479 85 -88 0
-479 -85 88 0
479 -474 85 88 -86 0
479 -474 -85 -88 -86 0
480 477 -83 0
480 -477 83 0
-480 477 83 0
-480 -477 -83 0
481 86 -84 0
481 -86 84 0
-481 86 84 0
-481 -86 -84 0
-482 477 0
-482 84 0
-482 83 -86 0
-482 -83 86 0
482 -477 83 86 -84 0
482 -477 -83 -86 -84 0
483 480 -81 0
483 -480 81 0
-483 480 81 0
-483 -480 -81 0
484 84 -82 0
484 -84 82 0
-484 84 82 0
-484 -84 -82 0
-485 480 0
-485 82 0
-485 81 -84 0
-485 -81 84 0
485 -480 81 84 -82 0
485 -480 -81 -84 -82 0
486 483 -79 0
486 -483 79 0
-486 483 79 0
-486 -483 -79 0
487 82 -80 0
487 -82 80 0
-487 82 80 0
-487 -82 -80 0
-488 483 0
-488 80 0
-488 79 -82 0
-488 -79 82 0
488 -483 79 82 -80 0
488 -483 -79 -82 -80 0
489 486 -77 0
489 -486 77 0
-489 486 77 0
-489 -486 -77 0
490 80 -78 0
490 -80 78 0
-490 80 78 0
-490 -80 -78 0
-491 486 0
-491 78 0
-491 77 -80 0
-491 -77 80 0
491 -486 77 80 -78 0
491 -486 -77 -80 -78 0
492 489 -75 0
492 -489 75 0
-492 489 75 0
-492 -489 -75 0
493 78 -76 0
493 -78 76 0
-493 78 76 0
-493 -78 -76 0
-494 489 0
-494 76 0
-494 75 -78 0
-494 -75 78 0
494 -489 75 78 -76 0
494 -489 -75 -78 -76 0
495 492 -73 0
495 -492 73 0
-495 492 73 0
-495 -492 -73 0
496 76 -74 0
496 -76 74 0
-496 76 74 0
-496 -76 -74 0
-497 492 0
-497 74 0
-497 73 -76 0
-497 -73 76 0
497 -492 73 76 -74 0
497 -492 -73 -76 -74 0
498 495 -71 0
498 -495 71 0
-498 495 71 0
-498 -495 -71 0
499 74 -72 0
499 -74 72 0
-499 74 72 0
-499 -74 -72 0
-500 495 0
-500 72 0
-500 71 -74 0
-500 -71 74 0
500 -495 71 74 -72 0
500 -495 -71 -74 -72 0
501 498 -69 0
501 -498 69 0
-501 498 69 0
-501 -498 -69 0
502 72 -70 0
502 -72 70 0
-502 72 70 0
-502 -72 -70 0
-503 498 0
-503 70 0
-503 69 -72 0
-503 -69 72 0
503 -498 69 72 -70 0
503 -498 -69 -72 -70 0
504 501 -67 0
504 -501 67 0
-504 501 67 0
-504 -501 -67 0
505 70 -68 0
505 -70 68 0
-505 70 68 0
-505 -70 -68 0
-506 501 0
-506 68 0
-506 67 -70 0
-506 -67 70 0
506 -501 67 70 -68 0
506 -501 -67 -70 -68 0
507 504 -65 0
507 -504 65 0
-507 504 65 0
-507 -504 -65 0
508 68 -66 0
508 -68 66 0
-508 68 66 0
-508 -68 -66 0
-509 504 0
-509 66 0
-509 65 -68 0
-509 -65 68 0
509 -504 65 68 -66 0
509 -504 -65 -68 -66 0
510 507 -63 0
510 -507 63 0
-510 507 63 0
-510 -507 -63 0
511 66 -64 0
511 -66 64 0
-511 66 64 0
-511 -66 -64 0
-512 507 0
-512 64 0
-512 63 -66 0
-512 -63 66 0
512 -507 63 66 -64 0
512 -507 -63 -66 -64 0
513 510 -61 0
513 -510 61 0
-513 510 61 0
-513 -510 -61 0
514 64 -62 0
514 -64 62 0
-514 64 62 0
-514 -64 -62 0
-515 510 0
-515 62 0
-515 61 -64 0
-515 -61 64 0
515 -510 61 64 -62 0
515 -510 -61 -64 -62 0
516 513 -59 0
516 -513 59 0
-516 513 59 0
-516 -513 -59 0
517 62 -60 0
517 -62 60 0
-517 62 60 0
-517 -62 -60 0
-518 513 0
-518 60 0
-518 59 -62 0
-518 -59 62 0
518 -513 59 62 -60 0
518 -513 -59 -62 -60 0
519 516 -57 0
519 -516 57 0
-519 516 57 0
-519 -516 -57 0
520 60 -58 0
520 -60 58 0
-520 60 58 0
-520 -60 -58 0
-521 516 0
-521 58 0
-521 57 -60 0
-521 -57 60 0
521 -516 57 60 -58 0
521 -516 -57 -60 -58 0
522 519 -55 0
522 -519 55 0
-522 519 55 0
-522 -519 -55 0
523 58 -56 0
523 -58 56 0
-523 58 56 0
-523 -58 -56 0
-524 519 0
-524 56 0
-524 55 -58 0
-524 -55 58 0
524 -519 55 58 -56 0
524 -519 -55 -58 -56 0
525 522 -53 0
525 -522 53 0
-525 522 53 0
-525 -522 -53 0
526 56 -54 0
526 -56 54 0
-526 56 54 0
-526 -56 -54 0
-527 522 0
-527 54 0
-527 53 -56 0
-527 -53 56 0
527 -522 53 56 -54 0
527 -522 -53 -56 -54 0
528 525 -51 0
528 -525 51 0
-528 525 51 0
-528 -525 -51 0
529 54 -52 0
529 -54 52 0
-529 54 52 0
-529 -54 -52 0
-530 525 0
-530 52 0
-530 51 -54 0
-530 -51 54 0
530 -525 51 54 -52 0
530 -525 -51 -54 -52 0
531 528 -49 0
531 -528 49 0
-531 528 49 0
-531 -528 -49 0
532 52 -50 0
532 -52 50 0
-532 52 50 0
-532 -52 -50 0
-533 528 0
-533 50 0
-533 49 -52 0
-533 -49 52 0
533 -528 49 52 -50 0
533 -528 -49 -52 -50 0
534 531 -47 0
534 -531 47 0
-534 531 47 0
-534 -531 -47 0
535 50 -48 0
535 -50 48 0
-535 50 48 0
-535 -50 -48 0
-536 531 0
-536 48 0
-536 47 -50 0
-536 -47 50 0
536 -531 47 50 -48 0
536 -531 -47 -50 -48 0
537 534 -45 0
537 -534 45 0
-537 534 45 0
-537 -534 -45 0
538 48 -46 0
538 -48 46 0
-538 48 46 0
-538 -48 -46 0
-539 534 0
-539 46 0
-539 45 -48 0
-539 -45 48 0
539 -534 45 48 -46 0
539 -534 -45 -48 -46 0
540 537 -43 0
540 -537 43 0
-540 537 43 0
-540 -537 -43 0
541 46 -44 0
541 -46 44 0
-541 46 44 0
-541 -46 -44 0
-542 537 0
-542 44 0
-542 43 -46 0
-542 -43 46 0
542 -537 43 46 -44 0
542 -537 -43 -46 -44 0
543 540 -41 0
543 -540 41 0
-543 540 41 0
-543 -540 -41 0
544 44 -42 0
544 -44 42 0
-544 44 42 0
-544 -44 -42 0
-545 540 0
-545 42 0
-545 41 -44 0
-545 -41 44 0
545 -540 41 44 -42 0
545 -540 -41 -44 -42 0
546 543 -39 0
546 -543 39 0
-546 543 39 0
-546 -543 -39 0
547 42 -40 0
547 -42 40 0
-547 42 40 0
-547 -42 -40 0
-548 543 0
-548 40 0
-548 39 -42 0
-548 -39 42 0
548 -543 39 42 -40 0
548 -543 -39 -42 -40 0
549 546 -37 0
549 -546 37 0
-549 546 37 0
-549 -546 -37 0
550 40 -38 0
550 -40 38 0
-550 40 38 0
-550 -40 -38 0
-551 546 0
-551 38 0
-551 37 -40 0
-551 -37 40 0
551 -546 37 40 -38 0
551 -546 -37 -40 -38 0
552 549 -35 0
552 -549 35 0
-552 549 35 0
-552 -549 -35 0
553 38 -36 0
553 -38 36 0
-553 38 36 0
-553 -38 -36 0
-554 549 0
-554 36 0
-554 35 -38 0
-554 -35 38 0
554 -549 35 38 -36 0
554 -549 -35 -38 -36 0
555 552 -33 0
555 -552 33 0
-555 552 33 0
-555 -552 -33 0
556 36 -34 0
556 -36 34 0
-556 36 34 0
-556 -36 -34 0
-557 552 0
-557 34 0
-557 33 -36 0
-557 -33 36 0
557 -552 33 36 -34 0
557 -552 -33 -36 -34 0
558 555 -31 0
558 -555 31 0
-558 555 31 0
-558 -555 -31 0
559 34 -32 0
559 -34 32 0
-559 34 32 0
-559 -34 -32 0
-560 555 0
-560 32 0
-560 31 -34 0
-560 -31 34 0
560 -555 31 34 -32 0
560 -555 -31 -34 -32 0
561 558 -29 0
561 -558 29 0
-561 558 29 0
-561 -558 -29 0
562 32 -30 0
562 -32 30 0
-562 32 30 0
-562 -32 -30 0
-563 558 0
-563 30 0
-563 29 -32 0
-563 -29 32 0
563 -558 29 32 -30 0
563 -558 -29 -32 -30 0
564 561 -27 0
564 -561 27 0
-564 561 27 0
-564 -561 -27 0
565 30 -28 0
565 -30 28 0
-565 30 28 0
-565 -30 -28 0
-566 561 0
-566 28 0
-566 27 -30 0
-566 -27 30 0
566 -561 27 30 -28 0
566 -561 -27 -30 -28 0
567 564 -25 0
567 -564 25 0
-567 564 25 0
-567 -564 -25 0
568 28 -26 0
568 -28 26 0
-568 28 26 0
-568 -28 -26 0
-569 564 0
-569 26 0
-569 25 -28 0
-569 -25 28 0
569 -564 25 28 -26 0
569 -564 -25 -28 -26 0
570 567 -23 0
570 -567 23 0
-570 567 23 0
-570 -567 -23 0
571 26 -24 0
571 -26 24 0
-571 26 24 0
-571 -26 -24 0
-572 567 0
-572 24 0
-572 23 -26 0
-572 -23 26 0
572 -567 23 26 -24 0
572 -567 -23 -26 -24 0
573 570 -21 0
573 -570 21 0
-573 570 21 0
-573 -570 -21 0
574 24 -22 0
574 -24 22 0
-574 24 22 0
-574 -24 -22 0
-575 570 0
-575 22 0
-575 21 -24 0
-575 -21 24 0
575 -570 21 24 -22 0
575 -570 -21 -24 -22 0
576 573 -19 0
576 -573 19 0
-576 573 19 0
-576 -573 -19 0
577 22 -20 0
577 -22 20 0
-577 22 20 0
-577 -22 -20 0
-578 573 0
-578 20 0
-578 19 -22 0
-578 -19 22 0
578 -573 19 22 -20 0
578 -573 -19 -22 -20 0
579 576 -17 0
579 -576 17 0
-579 576 17 0
-579 -576 -17 0
580 20 -18 0
580 -20 18 0
-580 20 18 0
-580 -20 -18 0
-581 576 0
-581 18 0
-581 17 -20 0
-581 -17 20 0
581 -576 17 20 -18 0
581 -576 -17 -20 -18 0
582 579 -15 0
582 -579 15 0
-582 579 15 0
-582 -579 -15 0
583 18 -16 0
583 -18 16 0
-583 18 16 0
-583 -18 -16 0
-584 579 0
-584 16 0
-584 15 -18 0
-584 -15 18 0
584 -579 15 18 -16 0
584 -579 -15 -18 -16 0
585 582 -13 0
585 -582 13 0
-585 582 13 0
-585 -582 -13 0
586 16 -14 0
586 -16 14 0
-586 16 14 0
-586 -16 -14 0
-587 582 0
-587 14 0
-587 13 -16 0
-587 -13 16 0
587 -582 13 16 -14 0
587 -582 -13 -16 -14 0
588 585 -11 0
588 -585 11 0
-588 585 11 0
-588 -585 -11 0
589 14 -12 0
589 -14 12 0
-589 14 12 0
-589 -14 -12 0
-590 585 0
-590 12 0
-590 11 -14 0
-590 -11 14 0
590 -585 11 14 -12 0
590 -585 -11 -14 -12 0
591 588 -9 0
591 -588 9 0
-591 588 9 0
-591 -588 -9 0
592 12 -10 0
592 -12 10 0
-592 12 10 0
-592 -12 -10 0
-593 588 0
-593 10 0
-593 9 -12 0
-593 -9 12 0
593 -588 9 12 -10 0
593 -588 -9 -12 -10 0
594 591 -7 0
594 -591 7 0
-594 591 7 0
-594 -591 -7 0
595 10 -8 0
595 -10 8 0
-595 10 8 0
-595 -10 -8 0
-596 591 0
-596 8 0
-596 7 -10 0
-596 -7 10 0
596 -591 7 10 -8 0
596 -591 -7 -10 -8 0
597 594 -5 0
597 -594 5 0
-597 594 5 0
-597 -594 -5 0
598 8 -6 0
598 -8 6 0
-598 8 6 0
-598 -8 -6 0
-599 594 0
-599 6 0
-599 5 -8 0
-599 -5 8 0
599 -594 5 8 -6 0
599 -594 -5 -8 -6 0
600 597 -3 0
600 -597 3 0
-600 597 3 0
-600 -597 -3 0
601 6 -4 0
601 -6 4 0
-601 6 4 0
-601 -6 -4 0
-602 597 0
-602 4 0
-602 3 -6 0
-602 -3 6 0
602 -597 3 6 -4 0
602 -597 -3 -6 -4 0
603 600 -1 0
603 -600 1 0
-603 600 1 0
-603 -600 -1 0
604 4 -2 0
604 -4 2 0
-604 4 2 0
-604 -4 -2 0
-605 600 0
-605 2 0
-605 1 -4 0
-605 -1 4 0
605 -600 1 4 -2 0
605 -600 -1 -4 -2 0
-603 0
-600 0
-604 0
-597 0
-601 0
-594 0
-598 0
-591 0
-595 0
-588 0
-592 0
-585 0
-589 0
-582 0
-586 0
-579 0
-583 0
-576 0
-580 0
-573 0
-577 0
-570 0
-574 0
-567 0
-571 0
-564 0
-568 0
-561 0
-565 0
-558 0
-562 0
-555 0
-559 0
-552 0
-556 0
-549 0
-553 0
-546 0
-550 0
-543 0
-547 0
-540 0
-544 0
-537 0
-541 0
-534 0
-538 0
-531 0
-535 0
-528 0
-532 0
-525 0
-529 0
-522 0
-526 0
-519 0
-523 0
-516 0
-520 0
-513 0
-517 0
-510 0
-514 0
-507 0
-511 0
-504 0
-508 0
-501 0
-505 0
-498 0
-502 0
-495 0
-499 0
-492 0
-496 0
-489 0
-493 0
-486 0
-490 0
-483 0
-487 0
-480 0
-484 0
-477 0
-481 0
-474 0
-478 0
-471 0
-475 0
-468 0
-472 0
-465 0
-469 0
-462 0
-466 0
-459 0
-463 0
-456 0
-460 0
-453 0
-457 0
-450 0
-454 0
-447 0
-451 0
-444 0
-448 0
-441 0
-445 0
-438 0
-442 0
-435 0
-439 0
-432 0
-436 0
-429 0
-433 0
-426 0
-430 0
-423 0
-427 0
-420 0
-424 0
-417 0
-421 0
-414 0
-418 0
-411 0
-415 0
-408 0
-412 0
-405 0
-409 0
-402 0
-406 0
-399 0
-403 0
-396 0
-400 0
-393 0
-397 0
-390 0
-394 0
-387 0
-391 0
-384 0
-388 0
-381 0
-385 0
-378 0
-382 0
-375 0
-379 0
-372 0
-376 0
-369 0
-373 0
-366 0
-370 0
-363 0
-367 0
-360 0
-364 0
-357 0
-361 0
-354 0
-358 0
-351 0
-355 0
-348 0
-352 0
-345 0
-349 0
-342 0
-346 0
-339 0
-343 0
-336 0
-340 0
-333 0
-337 0
-330 0
-334 0
-327 0
-331 0
-324 0
-328 0
-321 0
-325 0
-318 0
-322 0
-315 0
-319 0
-312 0
-316 0
-309 0
-313 0
-306 0
-310 0
-303 0
-307 0
-300 0
-304 0
-297 0
-301 0
-294 0
-298 0
-291 0
-295 0
-288 0
-292 0
-285 0
-289 0
-282 0
-286 0
-279 0
-283 0
-276 0
-280 0
-273 0
-277 0
-270 0
-274 0
-267 0
-271 0
-264 0
-268 0
-261 0
-265 0
-258 0
-262 0
-255 0
-259 0
-252 0
-256 0
-249 0
-253 0
-243 0
-250 0
